Route 1: 0 86 74 45 94 9 22 90 0
Route 2: 0 33 89 34 44 71 85 0
Route 3: 0 28 36 57 48 99 31 26 61 1 0
Route 4: 0 7 49 23 46 100 37 72 0
Route 5: 0 25 21 60 5 93 53 54 81 52 38 73 0
Route 6: 0 83 79 76 87 18 56 0
Route 7: 0 64 75 20 30 97 84 6 16 4 0
Route 8: 0 77 24 91 55 95 88 98 51 3 2 82 0
Route 9: 0 35 29 96 92 8 63 12 66 14 67 0
Route 10: 0 19 15 68 58 62 42 13 11 43 50 0
Route 11: 0 47 59 65 39 41 10 40 78 80 69 27 70 0
Route 12: 0 32 17 0
